p cnf 6 63
1 2 3 4 5 -6 0
1 2 3 4 -5 6 0
1 2 3 4 -5 -6 0
1 2 3 -4 5 6 0
1 2 3 -4 5 -6 0
1 2 3 -4 -5 6 0
1 2 3 -4 -5 -6 0
1 2 -3 4 5 6 0
1 2 -3 4 5 -6 0
1 2 -3 4 -5 6 0
1 2 -3 4 -5 -6 0
1 2 -3 -4 5 6 0
1 2 -3 -4 5 -6 0
1 2 -3 -4 -5 6 0
1 2 -3 -4 -5 -6 0
1 -2 3 4 5 6 0
1 -2 3 4 5 -6 0
1 -2 3 4 -5 6 0
1 -2 3 4 -5 -6 0
1 -2 3 -4 5 6 0
1 -2 3 -4 5 -6 0
1 -2 3 -4 -5 6 0
1 -2 3 -4 -5 -6 0
1 -2 -3 4 5 6 0
1 -2 -3 4 5 -6 0
1 -2 -3 4 -5 6 0
1 -2 -3 4 -5 -6 0
1 -2 -3 -4 5 6 0
1 -2 -3 -4 5 -6 0
1 -2 -3 -4 -5 6 0
1 -2 -3 -4 -5 -6 0
-1 2 3 4 5 6 0
-1 2 3 4 5 -6 0
-1 2 3 4 -5 6 0
-1 2 3 4 -5 -6 0
-1 2 3 -4 5 6 0
-1 2 3 -4 5 -6 0
-1 2 3 -4 -5 6 0
-1 2 3 -4 -5 -6 0
-1 2 -3 4 5 6 0
-1 2 -3 4 5 -6 0
-1 2 -3 4 -5 6 0
-1 2 -3 4 -5 -6 0
-1 2 -3 -4 5 6 0
-1 2 -3 -4 5 -6 0
-1 2 -3 -4 -5 6 0
-1 2 -3 -4 -5 -6 0
-1 -2 3 4 5 6 0
-1 -2 3 4 5 -6 0
-1 -2 3 4 -5 6 0
-1 -2 3 4 -5 -6 0
-1 -2 3 -4 5 6 0
-1 -2 3 -4 5 -6 0
-1 -2 3 -4 -5 6 0
-1 -2 3 -4 -5 -6 0
-1 -2 -3 4 5 6 0
-1 -2 -3 4 5 -6 0
-1 -2 -3 4 -5 6 0
-1 -2 -3 4 -5 -6 0
-1 -2 -3 -4 5 6 0
-1 -2 -3 -4 5 -6 0
-1 -2 -3 -4 -5 6 0
-1 -2 -3 -4 -5 -6 0
